NAME : P-n60-k10.746.tour
COMMENT : Cost = 0_746
COMMENT : Found by LKH [Keld Helsgaun] Wed Sep 13 11:55:50 2017
TYPE : TOUR
DIMENSION : 69
TOUR_SECTION
1
2
44
43
42
57
24
17
61
52
50
25
19
56
26
51
18
68
31
22
60
37
48
30
66
3
29
23
34
7
63
59
11
32
40
13
64
5
53
35
47
65
8
54
12
39
27
67
9
36
15
20
55
14
28
62
46
58
16
21
38
6
49
69
41
10
33
45
4
-1
EOF
